 vasp.5.4.4.18Apr17-6-g9f103f2a35 (build Dec 09 2018 21:25:21) complex

 executed on IFC18.0.1.163_CrayMP date 2019.03.20  09:55:38

 INCAR:
 POTCAR:   PAW_PBE Si 05Jan2001

 POTCAR:   PAW_PBE Si 05Jan2001
   VRHFIN =Si: s2p2

   TITEL  = PAW_PBE Si 05Jan2001
   POMASS =   28.085; ZVAL   =    4.000    mass and valenz
   ENMAX  =  245.345; ENMIN  =  184.009 eV
   QCUT   =   -4.246; QGAM   =    8.493    optimization parameters

   Description
     l     E      TYP  RCUT    TYP  RCUT
     0   .000     23  1.900
     0   .000     23  1.900
     1   .000     23  1.900
     1   .000     23  1.900
     2   .000      7  1.900

 PAW_PBE Si 05Jan2001                   :

 POSCAR: Si2
  positions in direct lattice
 exchange correlation table for  LEXCH =        8
   RHO(1)=    0.500       N(1)  =     2000
   RHO(2)=  100.500       N(2)  =     4000

 ion  position               nearest neighbor table
   1  0.500  0.500  0.500-   2 2.35   2 2.35   2 2.35   2 2.35
   2  0.750  0.750  0.750-   1 2.35   1 2.35   1 2.35   1 2.35

  LATTYP: Found a face centered cubic cell.
 ALAT       =     5.4300000000

  Lattice vectors:

 A1 = (   0.0000000000,   2.7150000000,   2.7150000000)
 A2 = (   2.7150000000,   0.0000000000,   2.7150000000)
 A3 = (   2.7150000000,   2.7150000000,   0.0000000000)

Analysis of symmetry for initial positions (statically):
 Subroutine PRICEL returns:
 Original cell was already a primitive cell.

 Routine SETGRP: Setting up the symmetry group for a
 face centered cubic supercell.

 Subroutine GETGRP returns: Found 48 space group operations
 (whereof 24 operations were pure point group operations)
 out of a pool of 48 trial point group operations.

The static configuration has the point symmetry T_d .
 The point group associated with its full space group is O_h .

Analysis of symmetry for dynamics (positions and initial velocities):
 Subroutine PRICEL returns:
 Original cell was already a primitive cell.

 Routine SETGRP: Setting up the symmetry group for a
 face centered cubic supercell.

 Subroutine GETGRP returns: Found 48 space group operations
 (whereof 24 operations were pure point group operations)
 out of a pool of 48 trial point group operations.

The dynamic configuration has the point symmetry T_d .
 The point group associated with its full space group is O_h .

 Subroutine INISYM returns: Found 48 space group operations
 (whereof 24 operations are pure point group operations),
 and found     1 'primitive' translations

 KPOINTS: Automatic kpoint scheme

Automatic generation of k-mesh.
Space group operators:
 irot       det(A)        alpha          n_x          n_y          n_z        tau_x        tau_y        tau_z
    1     1.000000     0.000001     1.000000     0.000000     0.000000     0.000000     0.000000     0.000000
    2     1.000000   120.000000    -0.577350    -0.577350    -0.577350     0.000000     0.000000     0.000000
    3     1.000000   120.000000     0.577350     0.577350     0.577350     0.000000     0.000000     0.000000
    4    -1.000000    90.000000    -0.000000    -0.000000    -1.000000     0.000000     0.000000     0.000000
    5    -1.000000   180.000000    -0.000000     0.707107     0.707107     0.000000     0.000000     0.000000
    6    -1.000000    90.000000    -0.000000     1.000000    -0.000000     0.000000     0.000000     0.000000
    7     1.000000   180.000000     0.000000     0.000000    -1.000000     0.000000     0.000000     0.000000
    8     1.000000   120.000000    -0.577350     0.577350     0.577350     0.000000     0.000000     0.000000
    9     1.000000   120.000000    -0.577350     0.577350    -0.577350     0.000000     0.000000     0.000000
   10    -1.000000    90.000000     0.000000     0.000000     1.000000     0.000000     0.000000     0.000000
   11    -1.000000    90.000000    -1.000000     0.000000    -0.000000     0.000000     0.000000     0.000000
   12    -1.000000   180.000000     0.707107     0.000000     0.707107     0.000000     0.000000     0.000000
   13     1.000000   120.000000     0.577350    -0.577350     0.577350     0.000000     0.000000     0.000000
   14     1.000000   120.000000    -0.577350    -0.577350     0.577350     0.000000     0.000000     0.000000
   15     1.000000   180.000000     1.000000     0.000000     0.000000     0.000000     0.000000     0.000000
   16    -1.000000    90.000000     0.000000    -1.000000     0.000000     0.000000     0.000000     0.000000
   17    -1.000000   180.000000     0.707107     0.707107    -0.000000     0.000000     0.000000     0.000000
   18    -1.000000    90.000000     1.000000     0.000000     0.000000     0.000000     0.000000     0.000000
   19     1.000000   120.000000     0.577350    -0.577350    -0.577350     0.000000     0.000000     0.000000
   20     1.000000   180.000000     0.000000    -1.000000     0.000000     0.000000     0.000000     0.000000
   21     1.000000   120.000000     0.577350     0.577350    -0.577350     0.000000     0.000000     0.000000
   22    -1.000000   180.000000    -0.000000    -0.707107     0.707107     0.000000     0.000000     0.000000
   23    -1.000000   180.000000     0.707107    -0.707107    -0.000000     0.000000     0.000000     0.000000
   24    -1.000000   180.000000    -0.707107     0.000000     0.707107     0.000000     0.000000     0.000000
   25    -1.000000     0.000001     1.000000     0.000000     0.000000     0.250000     0.250000     0.250000
   26    -1.000000   120.000000    -0.577350    -0.577350    -0.577350     0.250000     0.250000     0.250000
   27    -1.000000   120.000000     0.577350     0.577350     0.577350     0.250000     0.250000     0.250000
   28     1.000000    90.000000    -0.000000    -0.000000    -1.000000     0.250000     0.250000     0.250000
   29     1.000000   180.000000    -0.000000     0.707107     0.707107     0.250000     0.250000     0.250000
   30     1.000000    90.000000    -0.000000     1.000000    -0.000000     0.250000     0.250000     0.250000
   31    -1.000000   180.000000     0.000000     0.000000    -1.000000     0.250000     0.250000     0.250000
   32    -1.000000   120.000000    -0.577350     0.577350     0.577350     0.250000     0.250000     0.250000
   33    -1.000000   120.000000    -0.577350     0.577350    -0.577350     0.250000     0.250000     0.250000
   34     1.000000    90.000000     0.000000     0.000000     1.000000     0.250000     0.250000     0.250000
   35     1.000000    90.000000    -1.000000     0.000000    -0.000000     0.250000     0.250000     0.250000
   36     1.000000   180.000000     0.707107     0.000000     0.707107     0.250000     0.250000     0.250000
   37    -1.000000   120.000000     0.577350    -0.577350     0.577350     0.250000     0.250000     0.250000
   38    -1.000000   120.000000    -0.577350    -0.577350     0.577350     0.250000     0.250000     0.250000
   39    -1.000000   180.000000     1.000000     0.000000     0.000000     0.250000     0.250000     0.250000
   40     1.000000    90.000000     0.000000    -1.000000     0.000000     0.250000     0.250000     0.250000
   41     1.000000   180.000000     0.707107     0.707107    -0.000000     0.250000     0.250000     0.250000
   42     1.000000    90.000000     1.000000     0.000000     0.000000     0.250000     0.250000     0.250000
   43    -1.000000   120.000000     0.577350    -0.577350    -0.577350     0.250000     0.250000     0.250000
   44    -1.000000   180.000000     0.000000    -1.000000     0.000000     0.250000     0.250000     0.250000
   45    -1.000000   120.000000     0.577350     0.577350    -0.577350     0.250000     0.250000     0.250000
   46     1.000000   180.000000    -0.000000    -0.707107     0.707107     0.250000     0.250000     0.250000
   47     1.000000   180.000000     0.707107    -0.707107    -0.000000     0.250000     0.250000     0.250000
   48     1.000000   180.000000    -0.707107     0.000000     0.707107     0.250000     0.250000     0.250000

 Subroutine IBZKPT returns following result:

 Found     56 irreducible k-points:

 Following reciprocal coordinates:
            Coordinates               Weight
  0.000000  0.000000  0.000000      1.000000
  0.090909 -0.000000  0.000000      8.000000
  0.181818 -0.000000  0.000000      8.000000
  0.272727  0.000000  0.000000      8.000000
  0.363636 -0.000000  0.000000      8.000000
  0.454545  0.000000  0.000000      8.000000
  0.090909  0.090909  0.000000      6.000000
  0.181818  0.090909  0.000000     24.000000
  0.272727  0.090909  0.000000     24.000000
  0.363636  0.090909  0.000000     24.000000
  0.454545  0.090909  0.000000     24.000000
 -0.454545  0.090909 -0.000000     24.000000
 -0.363636  0.090909 -0.000000     24.000000
 -0.272727  0.090909 -0.000000     24.000000
 -0.181818  0.090909 -0.000000     24.000000
 -0.090909  0.090909 -0.000000     12.000000
  0.181818  0.181818  0.000000      6.000000
  0.272727  0.181818  0.000000     24.000000
  0.363636  0.181818  0.000000     24.000000
  0.454545  0.181818  0.000000     24.000000
 -0.454545  0.181818  0.000000     24.000000
 -0.363636  0.181818 -0.000000     24.000000
 -0.272727  0.181818 -0.000000     24.000000
 -0.181818  0.181818 -0.000000     12.000000
  0.272727  0.272727  0.000000      6.000000
  0.363636  0.272727  0.000000     24.000000
  0.454545  0.272727  0.000000     24.000000
 -0.454545  0.272727  0.000000     24.000000
 -0.363636  0.272727  0.000000     24.000000
 -0.272727  0.272727 -0.000000     12.000000
  0.363636  0.363636  0.000000      6.000000
  0.454545  0.363636  0.000000     24.000000
 -0.454545  0.363636 -0.000000     24.000000
 -0.363636  0.363636 -0.000000     12.000000
  0.454545  0.454545  0.000000      6.000000
 -0.454545  0.454545 -0.000000     12.000000
  0.272727  0.181818  0.090909     24.000000
  0.363636  0.181818  0.090909     48.000000
  0.454545  0.181818  0.090909     48.000000
 -0.454545  0.181818  0.090909     48.000000
  0.363636  0.272727  0.090909     24.000000
  0.454545  0.272727  0.090909     48.000000
 -0.454545  0.272727  0.090909     48.000000
 -0.363636  0.272727  0.090909     48.000000
 -0.272727  0.272727  0.090909     48.000000
 -0.181818  0.272727  0.090909     24.000000
  0.454545  0.363636  0.090909     24.000000
 -0.454545  0.363636  0.090909     48.000000
 -0.363636  0.363636  0.090909     48.000000
 -0.272727  0.363636  0.090909     24.000000
 -0.454545  0.454545  0.090909     24.000000
 -0.363636  0.454545  0.090909     24.000000
 -0.454545  0.363636  0.181818     24.000000
 -0.363636  0.363636  0.181818     48.000000
 -0.363636  0.454545  0.181818     24.000000
 -0.272727  0.454545  0.181818     24.000000

 Following cartesian coordinates:
            Coordinates               Weight
  0.000000  0.000000  0.000000      1.000000
 -0.016742  0.016742  0.016742      8.000000
 -0.033484  0.033484  0.033484      8.000000
 -0.050226  0.050226  0.050226      8.000000
 -0.066968  0.066968  0.066968      8.000000
 -0.083710  0.083710  0.083710      8.000000
  0.000000  0.000000  0.033484      6.000000
 -0.016742  0.016742  0.050226     24.000000
 -0.033484  0.033484  0.066968     24.000000
 -0.050226  0.050226  0.083710     24.000000
[...]
  -0.36363636  0.18181818 -0.00000000       0.018
  -0.27272727  0.18181818 -0.00000000       0.018
  -0.18181818  0.18181818 -0.00000000       0.009
   0.27272727  0.27272727  0.00000000       0.005
   0.36363636  0.27272727  0.00000000       0.018
   0.45454545  0.27272727  0.00000000       0.018
  -0.45454545  0.27272727  0.00000000       0.018
  -0.36363636  0.27272727  0.00000000       0.018
  -0.27272727  0.27272727 -0.00000000       0.009
   0.36363636  0.36363636  0.00000000       0.005
   0.45454545  0.36363636  0.00000000       0.018
  -0.45454545  0.36363636 -0.00000000       0.018
  -0.36363636  0.36363636 -0.00000000       0.009
   0.45454545  0.45454545  0.00000000       0.005
  -0.45454545  0.45454545 -0.00000000       0.009
   0.27272727  0.18181818  0.09090909       0.018
   0.36363636  0.18181818  0.09090909       0.036
   0.45454545  0.18181818  0.09090909       0.036
  -0.45454545  0.18181818  0.09090909       0.036
   0.36363636  0.27272727  0.09090909       0.018
   0.45454545  0.27272727  0.09090909       0.036
  -0.45454545  0.27272727  0.09090909       0.036
  -0.36363636  0.27272727  0.09090909       0.036
  -0.27272727  0.27272727  0.09090909       0.036
  -0.18181818  0.27272727  0.09090909       0.018
   0.45454545  0.36363636  0.09090909       0.018
  -0.45454545  0.36363636  0.09090909       0.036
  -0.36363636  0.36363636  0.09090909       0.036
  -0.27272727  0.36363636  0.09090909       0.018
  -0.45454545  0.45454545  0.09090909       0.018
  -0.36363636  0.45454545  0.09090909       0.018
  -0.45454545  0.36363636  0.18181818       0.018
  -0.36363636  0.36363636  0.18181818       0.036
  -0.36363636  0.45454545  0.18181818       0.018
  -0.27272727  0.45454545  0.18181818       0.018

 position of ions in fractional coordinates (direct lattice)
   0.50000000  0.50000000  0.50000000
   0.75000000  0.75000000  0.75000000

 position of ions in cartesian coordinates  (Angst):
   2.71500000  2.71500000  2.71500000
   4.07250000  4.07250000  4.07250000

 k-point  1 :   0.0000 0.0000 0.0000  plane waves:     459
 k-point  2 :   0.0909-0.0000 0.0000  plane waves:     495
 k-point  3 :   0.1818-0.0000 0.0000  plane waves:     483
 k-point  4 :   0.2727 0.0000 0.0000  plane waves:     483
 k-point  5 :   0.3636-0.0000 0.0000  plane waves:     477
 k-point  6 :   0.4545 0.0000 0.0000  plane waves:     470
 k-point  7 :   0.0909 0.0909 0.0000  plane waves:     495
 k-point  8 :   0.1818 0.0909 0.0000  plane waves:     478
 k-point  9 :   0.2727 0.0909 0.0000  plane waves:     482
 k-point 10 :   0.3636 0.0909 0.0000  plane waves:     471
 k-point 11 :   0.4545 0.0909 0.0000  plane waves:     474
 k-point 12 :  -0.4545 0.0909-0.0000  plane waves:     465
 k-point 13 :  -0.3636 0.0909-0.0000  plane waves:     473
 k-point 14 :  -0.2727 0.0909-0.0000  plane waves:     476
 k-point 15 :  -0.1818 0.0909-0.0000  plane waves:     479
 k-point 16 :  -0.0909 0.0909-0.0000  plane waves:     485
 k-point 17 :   0.1818 0.1818 0.0000  plane waves:     480
 k-point 18 :   0.2727 0.1818 0.0000  plane waves:     478
 k-point 19 :   0.3636 0.1818 0.0000  plane waves:     465
 k-point 20 :   0.4545 0.1818 0.0000  plane waves:     470
 k-point 21 :  -0.4545 0.1818 0.0000  plane waves:     469
 k-point 22 :  -0.3636 0.1818-0.0000  plane waves:     468
 k-point 23 :  -0.2727 0.1818-0.0000  plane waves:     473
 k-point 24 :  -0.1818 0.1818-0.0000  plane waves:     477
 k-point 25 :   0.2727 0.2727 0.0000  plane waves:     472
 k-point 26 :   0.3636 0.2727 0.0000  plane waves:     469
 k-point 27 :   0.4545 0.2727 0.0000  plane waves:     467
 k-point 28 :  -0.4545 0.2727 0.0000  plane waves:     464
 k-point 29 :  -0.3636 0.2727 0.0000  plane waves:     466
 k-point 30 :  -0.2727 0.2727-0.0000  plane waves:     477
 k-point 31 :   0.3636 0.3636 0.0000  plane waves:     472
 k-point 32 :   0.4545 0.3636 0.0000  plane waves:     465
 k-point 33 :  -0.4545 0.3636-0.0000  plane waves:     473
 k-point 34 :  -0.3636 0.3636-0.0000  plane waves:     470
 k-point 35 :   0.4545 0.4545 0.0000  plane waves:     468
 k-point 36 :  -0.4545 0.4545-0.0000  plane waves:     466
 k-point 37 :   0.2727 0.1818 0.0909  plane waves:     480
 k-point 38 :   0.3636 0.1818 0.0909  plane waves:     478
 k-point 39 :   0.4545 0.1818 0.0909  plane waves:     474
 k-point 40 :  -0.4545 0.1818 0.0909  plane waves:     467
 k-point 41 :   0.3636 0.2727 0.0909  plane waves:     472
 k-point 42 :   0.4545 0.2727 0.0909  plane waves:     470
 k-point 43 :  -0.4545 0.2727 0.0909  plane waves:     472
 k-point 44 :  -0.3636 0.2727 0.0909  plane waves:     470
 k-point 45 :  -0.2727 0.2727 0.0909  plane waves:     477
 k-point 46 :  -0.1818 0.2727 0.0909  plane waves:     472
 k-point 47 :   0.4545 0.3636 0.0909  plane waves:     471
 k-point 48 :  -0.4545 0.3636 0.0909  plane waves:     472
 k-point 49 :  -0.3636 0.3636 0.0909  plane waves:     470
 k-point 50 :  -0.2727 0.3636 0.0909  plane waves:     474
 k-point 51 :  -0.4545 0.4545 0.0909  plane waves:     463
 k-point 52 :  -0.3636 0.4545 0.0909  plane waves:     473
 k-point 53 :  -0.4545 0.3636 0.1818  plane waves:     472
 k-point 54 :  -0.3636 0.3636 0.1818  plane waves:     474
 k-point 55 :  -0.3636 0.4545 0.1818  plane waves:     470
 k-point 56 :  -0.2727 0.4545 0.1818  plane waves:     472

 maximum and minimum number of plane-waves per node :       495      459

 maximum number of plane-waves:       495
 maximum index in each direction:
   IXMAX=    5   IYMAX=    5   IZMAX=    5
   IXMIN=   -5   IYMIN=   -5   IZMIN=   -5

 serial   3D FFT for wavefunctions
 parallel 3D FFT for charge:
    minimum data exchange during FFTs selected (reduces bandwidth)

 Broyden mixing: mesh for mixing (old mesh)
   NGX = 11   NGY = 11   NGZ = 11
  (NGX  = 32   NGY  = 32   NGZ  = 32)
  gives a total of   1331 points

 initial charge density was supplied:
 charge density of overlapping atoms calculated
 number of electron       8.0000000 magnetization
 keeping initial charge density in first step

 Maximum index for augmentation-charges          433 (set IRDMAX)

 First call to EWALD:  gamma=   0.518
 Maximum number of real-space cells 3x 3x 3
 Maximum number of reciprocal cells 3x 3x 3

--------------------------------------- Iteration      1(   1)  ---------------------------------------

 eigenvalue-minimisations  :   896
 total energy-change (2. order) : 0.3363402E+01  (-0.2539098E+03)
 number of electron       8.0000000 magnetization
 augmentation part        8.0000000 magnetization

 Free energy of the ion-electron system (eV)
  alpha Z        PSCENC =         3.36414203
  Ewald energy   TEWEN  =      -228.56352493
  -Hartree energ DENC   =       -11.00108243
  -exchange      EXHF   =         0.00000000
  -V(xc)+E(xc)   XCENC  =       -18.60181216
  PAW double counting   =        65.95520812      -30.76852678
  entropy T*S    EENTRO =        -0.01030717
  eigenvalues    EBANDS =        16.85961951
  atomic energy  EATOM  =       206.12968587
  Solvation  Ediel_sol  =         0.00000000
  free energy    TOTEN  =         3.36340205 eV

  energy without entropy =        3.37370922  energy(sigma->0) =        3.36855564

[...]

 eigenvalue-minimisations  :  1400
 total energy-change (2. order) :-0.1421383E+02  (-0.1368980E+02)
 number of electron       8.0000000 magnetization
 augmentation part        8.0000000 magnetization

[...]

 Broyden mixing:
  rms(total) = 0.30062E+00    rms(broyden)= 0.30061E+00
  rms(prec ) = 0.87225E+00
  weight for this iteration     100.00

[...]

 eigenvalues of (default mixing * dielectric matrix)
  average eigenvalue GAMMA=   2.4322
  2.4322

[...]

 average (electrostatic) potential at core
  the test charge radii are     0.9892
  (the norm of the test charge is              1.0000)
       1 -83.2499       2 -83.2499

 E-fermi :   6.1085     XC(G=0):  -9.4137     alpha+bet :-11.9845

 k-point     1 :       0.0000    0.0000    0.0000
  band No.  band energies     occupation
      1      -6.1318      2.00000
      2       5.8318      1.94959
      3       5.8319      1.94957
      4       5.8319      1.94957
      5       8.4010      0.00000
      6       8.4010      0.00000
      7       8.4010      0.00000
      8       9.2060      0.00000

[...]

 soft charge-density along one line, spin component           1
         0         1         2         3         4         5         6         7         8         9
 total charge-density along one line

------------------------ aborting loop because EDIFF is reached ----------------------------------------

  FORCE on cell =-STRESS in cart. coord.  units (eV):
  Direction    XX          YY          ZZ          XY          YZ          ZX
  Alpha Z     3.36414     3.36414     3.36414
  Ewald     -76.18788   -76.18788   -76.18788    -0.00000    -0.00000     0.00000
  Hartree     4.97137     4.97137     4.97137    -0.00000    -0.00000    -0.00000
  E(xc)     -25.37479   -25.37479   -25.37479     0.00001     0.00001     0.00001
  Local     -29.26324   -29.26324   -29.26324     0.00005     0.00005     0.00005
  n-local    78.88334    80.28038    74.52359     2.22939    -1.31037     0.55400
  augment   -11.64794   -11.64794   -11.64794    -0.00004    -0.00004    -0.00004
  Kinetic    58.89039    56.12056    55.13269     3.57363    -0.63910     1.03706
  Fock        0.00000     0.00000     0.00000     0.00000     0.00000     0.00000
  Total       0.47199     0.47199     0.47199    -0.00000    -0.00000     0.00000
  in kB      18.89305    18.89305    18.89305    -0.00000    -0.00000     0.00000

 VOLUME and BASIS-vectors are now :
  energy-cutoff  :      300.00
  volume of cell :       40.03
      direct lattice vectors                 reciprocal lattice vectors
     0.000000000  2.715000000  2.715000000    -0.184162063  0.184162063  0.184162063
     2.715000000  0.000000000  2.715000000     0.184162063 -0.184162063  0.184162063
     2.715000000  2.715000000  0.000000000     0.184162063  0.184162063 -0.184162063

[...]

 FORCES acting on ions
    electron-ion (+dipol)            ewald-force                    non-local-force                 convergence-correction
   0.131E-05 0.131E-05 0.222E-05   -.476E-15 -.149E-14 0.391E-14   -.159E-17 -.159E-17 -.144E-16   -.298E-06 -.298E-06 -.299E-06
   -.131E-05 -.131E-05 -.222E-05   0.623E-15 0.106E-14 -.375E-14   -.107E-17 0.587E-17 0.288E-17   0.298E-06 0.298E-06 0.299E-06
   0.124E-12 0.472E-13 -.737E-14   0.147E-15 -.426E-15 0.164E-15   -.265E-17 0.428E-17 -.115E-16   -.609E-14 -.457E-14 0.152E-14

 POSITION                                       TOTAL-FORCE (eV/Angst)
      2.71500      2.71500      2.71500        -0.000000     -0.000000     -0.000000
      4.07250      4.07250      4.07250         0.000000      0.000000      0.000000
    total drift:                                0.000000      0.000000     -0.000000

  FREE ENERGIE OF THE ION-ELECTRON SYSTEM (eV)
  free  energy   TOTEN  =       -10.83799557 eV

  energy  without entropy=      -10.83787502  energy(sigma->0) =      -10.83793529

[...]

 d Force = 0.0000000E+00[ 0.000E+00, 0.000E+00]  d Energy = 0.2397755E-02-0.240E-02
 d Force = 0.0000000E+00[ 0.000E+00, 0.000E+00]  d Ewald  =-0.2572898E+01 0.257E+01

 Steepest descent step on ions:
 trial-energy change:   -0.002398  1 .order   -0.002745   -0.016121    0.010630
  (g-gl).g = 0.161E-01      g.g   = 0.161E-01  gl.gl    = 0.000E+00
 g(Force)  = 0.120E-44   g(Stress)= 0.161E-01 ortho     = 0.000E+00
 gamma     =   0.00000
 trial     =   1.00000
 opt step  =   0.60263  (harmonic =   0.60263) maximal distance =0.00000000
 next E    =   -10.842853   (d E  =  -0.00486)

[...]

 eigenvalue-minimisations  :  1064
 total energy-change (2. order) :-0.3209500E-02  (-0.3965683E-02)
 number of electron       7.9999996 magnetization
 augmentation part       -0.4568420 magnetization

[...]

 Broyden mixing:
  rms(total) = 0.72818E-02    rms(broyden)= 0.72817E-02
  rms(prec ) = 0.26281E-01
  weight for this iteration     100.00

 eigenvalues of (default mixing * dielectric matrix)
  average eigenvalue GAMMA=   2.2965
  2.2965

[...]

--------------------------------------- Iteration      3(   3)  ---------------------------------------

 eigenvalue-minimisations  :   712
 total energy-change (2. order) : 0.3414021E-03  (-0.6990964E-04)
 number of electron       7.9999996 magnetization
 augmentation part       -0.4572495 magnetization

 Free energy of the ion-electron system (eV)
  alpha Z        PSCENC =         3.29583760
  Ewald energy   TEWEN  =      -227.00604335
  -Hartree energ DENC   =       -15.15751008
  -exchange      EXHF   =         0.00000000
  -V(xc)+E(xc)   XCENC  =       -18.05524132
  PAW double counting   =        73.78786214      -38.80679912
  entropy T*S    EENTRO =        -0.00008698
  eigenvalues    EBANDS =         4.96968811
  atomic energy  EATOM  =       206.12968587
  Solvation  Ediel_sol  =         0.00000000
  free energy    TOTEN  =       -10.84260713 eV

  energy without entropy =      -10.84252015  energy(sigma->0) =      -10.84256364

 average (electrostatic) potential at core
  the test charge radii are     0.9892
  (the norm of the test charge is              1.0000)
       1 -83.4743       2 -83.4743

 E-fermi :   5.9240     XC(G=0):  -9.3302     alpha+bet :-11.7412

[...]

 k-point    56 :      -0.2727    0.4545    0.1818
  band No.  band energies     occupation
      1      -2.3464      2.00000
      2      -1.6183      2.00000
      3       1.5928      2.00000
      4       2.2782      2.00000
      5       8.9656      0.00000
      6      10.2433      0.00000
      7      10.9550      0.00000
      8      10.9636      0.00000

 soft charge-density along one line, spin component           1
         0         1         2         3         4         5         6         7         8         9
 total charge-density along one line

------------------------ aborting loop because EDIFF is reached ----------------------------------------

  FORCE on cell =-STRESS in cart. coord.  units (eV):
  Direction    XX          YY          ZZ          XY          YZ          ZX
  Alpha Z     3.29584     3.29584     3.29584
  Ewald     -75.66872   -75.66872   -75.66872     0.00000    -0.00000     0.00000
  Hartree     5.05339     5.05339     5.05339    -0.00000    -0.00000    -0.00000
  E(xc)     -25.25984   -25.25984   -25.25984     0.00001     0.00001     0.00001
  Local     -29.55169   -29.55169   -29.55169     0.00005     0.00005     0.00005
  n-local    78.49733    79.89087    74.15495     2.18601    -1.27875     0.53653
  augment   -11.63762   -11.63762   -11.63762    -0.00005    -0.00005    -0.00005
  Kinetic    58.40686    55.81236    54.50383     3.57298    -0.67665     1.03524
  Fock        0.00000     0.00000     0.00000     0.00000     0.00000     0.00000
  Total      -0.01323    -0.01323    -0.01323     0.00000     0.00000     0.00000
  in kB      -0.51886    -0.51886    -0.51886     0.00000     0.00000     0.00000

 VOLUME and BASIS-vectors are now :
  energy-cutoff  :      300.00
  volume of cell :       40.86
      direct lattice vectors                 reciprocal lattice vectors
     0.000000000  2.733627533  2.733627533    -0.182907142  0.182907142  0.182907142
     2.733627533 -0.000000000  2.733627533     0.182907142 -0.182907142  0.182907142
     2.733627533  2.733627533  0.000000000     0.182907142  0.182907142 -0.182907142

  length of vectors
     3.865933131  3.865933131  3.865933131     0.316804463  0.316804463  0.316804463

 FORCES acting on ions
    electron-ion (+dipol)            ewald-force                    non-local-force                 convergence-correction
   0.232E-05 0.232E-05 0.322E-05   0.953E-14 -.777E-14 -.109E-13   0.336E-16 0.475E-16 0.373E-16   -.313E-08 -.313E-08 -.311E-08
   -.232E-05 -.232E-05 -.322E-05   -.967E-14 0.770E-14 0.111E-13   -.707E-16 -.360E-16 -.443E-16   0.313E-08 0.313E-08 0.311E-08
   0.116E-12 0.627E-13 -.126E-14   -.139E-15 -.681E-16 0.196E-15   -.371E-16 0.115E-16 -.692E-17   -.383E-14 -.151E-14 -.809E-15

 POSITION                                       TOTAL-FORCE (eV/Angst)
      2.73363      2.73363      2.73363        -0.000000     -0.000000     -0.000000
      4.10044      4.10044      4.10044         0.000000      0.000000      0.000000
    total drift:                                0.000000      0.000000     -0.000000

  FREE ENERGIE OF THE ION-ELECTRON SYSTEM (eV)
  free  energy   TOTEN  =       -10.84260713 eV

  energy  without entropy=      -10.84252015  energy(sigma->0) =      -10.84256364

 d Force = 0.0000000E+00[ 0.000E+00, 0.000E+00]  d Energy = 0.2213804E-02-0.221E-02
 d Force = 0.0000000E+00[ 0.000E+00, 0.000E+00]  d Ewald  = 0.1015417E+01-0.102E+01

 reached required accuracy - stopping structural energy minimisation
 writing wavefunctions